Tasks lengths
[40, 52, 52, 58, 63, 64, 65, 65, 67, 69, 69, 69, 74, 77, 77, 83, 88, 89, 91, 96, 96, 98, 102, 102, 113, 115, 116, 120, 125, 129, 133, 139, 146, 148, 153, 160, 168, 169, 219, 239]
10
Academic license - for non-commercial use only - expires 2022-11-10
Using license file /home/benedond/Apps/gurobi/gurobi950/gurobi.lic
Using gurobi.env file
Set parameter Threads to value 1
Changed value of parameter TimeLimit to 300.0
   Prev: inf  Min: 0.0  Max: inf  Default: inf
Gurobi Optimizer version 9.1.2 build v9.1.2rc0 (linux64)
Thread count: 2 physical cores, 4 logical processors, using up to 1 threads
Optimize a model with 450 rows, 410 columns and 1628 nonzeros
Model fingerprint: 0x2a6c4ec3
Model has 400 quadratic objective terms
Variable types: 10 continuous, 400 integer (400 binary)
Coefficient statistics:
  Matrix range     [1e+00, 2e+02]
  Objective range  [0e+00, 0e+00]
  QObjective range [1e-03, 9e-03]
  Bounds range     [1e+00, 1e+00]
  RHS range        [1e+00, 6e+02]
Presolve removed 202 rows and 184 columns
Presolve time: 0.02s
Presolved: 464 rows, 442 columns, 1524 nonzeros
Variable types: 0 continuous, 442 integer (216 binary)
Found heuristic solution: objective 5.1461861

Root relaxation: objective 0.000000e+00, 100 iterations, 0.00 seconds

    Nodes    |    Current Node    |     Objective Bounds      |     Work
 Expl Unexpl |  Obj  Depth IntInf | Incumbent    BestBd   Gap | It/Node Time

     0     0    0.00000    0   47    5.14619    0.00000   100%     -    0s
H    0     0                       4.6284136    0.00000   100%     -    0s
     0     0    0.00000    0   51    4.62841    0.00000   100%     -    0s
     0     0    0.08009    0   47    4.62841    0.08009  98.3%     -    0s
     0     0    0.16288    0   47    4.62841    0.16288  96.5%     -    0s
     0     0    0.75261    0   60    4.62841    0.75261  83.7%     -    0s
     0     0    0.90098    0   59    4.62841    0.90098  80.5%     -    0s
     0     0    0.90098    0   51    4.62841    0.90098  80.5%     -    0s
     0     0    1.98265    0   69    4.62841    1.98265  57.2%     -    0s
     0     0    2.15819    0   79    4.62841    2.15819  53.4%     -    0s
     0     0    2.15819    0   77    4.62841    2.15819  53.4%     -    0s
     0     0    2.65881    0   87    4.62841    2.65881  42.6%     -    0s
     0     0    2.68179    0   83    4.62841    2.68179  42.1%     -    0s
     0     2    2.79350    0   81    4.62841    2.79350  39.6%     -    0s
H  162   110                       4.3318098    2.91781  32.6%  11.3    0s
H  189   122                       4.2401402    2.91781  31.2%  11.6    0s
H  216   140                       4.2079038    2.93875  30.2%  12.1    0s
H  243   162                       4.1769073    2.93875  29.6%  12.5    0s
H  270   176                       4.1575036    2.99463  28.0%  14.2    0s
H  327   211                       4.1384708    2.99463  27.6%  13.1    0s
H  512   293                       4.1158053    3.07549  25.3%  15.3    0s
H  639   332                       4.1093445    3.67247  10.6%  21.3    1s
H  667   320                       4.1077188    3.67247  10.6%  20.9    1s
  3292   796    4.04205   31   67    4.10772    3.90321  4.98%  26.1    5s
  7175  1115    4.02631   31   78    4.10772    3.98795  2.92%  24.5   10s
 11879   775     cutoff   34         4.10772    4.04991  1.41%  22.8   15s

Cutting planes:
  Gomory: 8
  Cover: 5
  Implied bound: 200
  Projected implied bound: 10
  Clique: 10
  MIR: 109
  StrongCG: 2
  Flow cover: 183
  GUB cover: 4
  Inf proof: 1
  Zero half: 2
  Mod-K: 1
  RLT: 8
  Relax-and-lift: 32

Explored 13950 nodes (306327 simplex iterations) in 16.77 seconds
Thread count was 1 (of 4 available processors)

Solution count 10: 4.10772 4.10934 4.11581 ... 4.62841

Optimal solution found (tolerance 1.00e-04)
Best objective 4.107718754070e+00, best bound 4.107366199268e+00, gap 0.0086%
